peakDumbCharging = 37000; 
Machine = anon_enum(16); 
machineSpeed = [3700,3700,3700,3700,3700,3700,3700,3700,3700,3700,3700,3700,3700,3700,3700,3700]; 
machineLoad = [3700,3700,3700,3700,3700,3700,3700,3700,3700,3700,3700,3700,3700,3700,3700,3700]; 
Car = anon_enum(42); 
demandCar = [5880,2400,440,4480,5840,5520,2880,2840,9800,1880,5880,3120,3480,1920,200,17040,11280,3120,3880,16320,4600,7960,4000,360,3200,13480,2720,16200,3000,2520,9040,6960,10440,9520,5600,7920,31520,2960,8120,7800,2960,31960]; 
arrivalCar = [69,66,66,65,64,59,57,56,56,55,54,54,54,53,53,52,52,50,50,49,48,47,47,46,46,46,45,42,42,41,41,41,40,40,40,39,38,37,37,35,35,29]; 
departureCar = [72,69,67,67,68,62,59,58,60,57,60,57,58,55,55,61,57,53,52,60,52,58,50,47,49,54,47,50,47,43,47,44,45,47,43,42,54,40,40,41,41,47]; 
